p cnf 915 2767
7 16 0 
-7 -16 0 
25 34 0 
-25 -34 0 
86 88 0 
-86 -88 0 
94 96 0 
-94 -96 0 
-7 -676 144 0 
-7 -676 -144 0 
-144 -677 153 0 
-144 -677 -153 0 
-153 -678 162 0 
-153 -678 -162 0 
-162 -679 171 0 
-162 -679 -171 0 
-171 -680 180 0 
-171 -680 -180 0 
-180 -681 189 0 
-180 -681 -189 0 
-7 -682 190 0 
-7 -682 -144 0 
-144 -683 199 0 
-144 -683 -153 0 
-153 -684 208 0 
-153 -684 -162 0 
-162 -685 217 0 
-162 -685 -171 0 
-171 -686 226 0 
-171 -686 -180 0 
-180 -687 235 0 
-180 -687 -189 0 
-16 -688 144 0 
-16 -688 -190 0 
-190 -689 153 0 
-190 -689 -199 0 
-199 -690 162 0 
-199 -690 -208 0 
-208 -691 171 0 
-208 -691 -217 0 
-217 -692 180 0 
-217 -692 -226 0 
-226 -693 189 0 
-226 -693 -235 0 
-16 -694 190 0 
-16 -694 -190 0 
-190 -695 199 0 
-190 -695 -199 0 
-199 -696 208 0 
-199 -696 -208 0 
-208 -697 217 0 
-208 -697 -217 0 
-217 -698 226 0 
-217 -698 -226 0 
-226 -699 235 0 
-226 -699 -235 0 
-25 -700 236 0 
-25 -700 -236 0 
-236 -701 245 0 
-236 -701 -245 0 
-245 -702 254 0 
-245 -702 -254 0 
-254 -703 263 0 
-254 -703 -263 0 
-263 -704 272 0 
-263 -704 -272 0 
-272 -705 281 0 
-272 -705 -281 0 
-25 -706 282 0 
-25 -706 -236 0 
-236 -707 291 0 
-236 -707 -245 0 
-245 -708 300 0 
-245 -708 -254 0 
-254 -709 309 0 
-254 -709 -263 0 
-263 -710 318 0 
-263 -710 -272 0 
-272 -711 327 0 
-272 -711 -281 0 
-34 -712 236 0 
-34 -712 -282 0 
-282 -713 245 0 
-282 -713 -291 0 
-291 -714 254 0 
-291 -714 -300 0 
-300 -715 263 0 
-300 -715 -309 0 
-309 -716 272 0 
-309 -716 -318 0 
-318 -717 281 0 
-318 -717 -327 0 
-34 -718 282 0 
-34 -718 -282 0 
-282 -719 291 0 
-282 -719 -291 0 
-291 -720 300 0 
-291 -720 -300 0 
-300 -721 309 0 
-300 -721 -309 0 
-309 -722 318 0 
-309 -722 -318 0 
-318 -723 327 0 
-318 -723 -327 0 
-7 -724 144 0 
-7 -724 -144 0 
-144 -725 153 0 
-144 -725 -153 0 
-153 -726 162 0 
-153 -726 -162 0 
-162 -727 171 0 
-162 -727 -171 0 
-171 -728 180 0 
-171 -728 -180 0 
-180 -729 189 0 
-180 -729 -189 0 
-7 -730 190 0 
-7 -730 -144 0 
-144 -731 199 0 
-144 -731 -153 0 
-153 -732 208 0 
-153 -732 -162 0 
-162 -733 217 0 
-162 -733 -171 0 
-171 -734 226 0 
-171 -734 -180 0 
-180 -735 235 0 
-180 -735 -189 0 
-16 -736 144 0 
-16 -736 -190 0 
-190 -737 153 0 
-190 -737 -199 0 
-199 -738 162 0 
-199 -738 -208 0 
-208 -739 171 0 
-208 -739 -217 0 
-217 -740 180 0 
-217 -740 -226 0 
-226 -741 189 0 
-226 -741 -235 0 
-16 -742 190 0 
-16 -742 -190 0 
-190 -743 199 0 
-190 -743 -199 0 
-199 -744 208 0 
-199 -744 -208 0 
-208 -745 217 0 
-208 -745 -217 0 
-217 -746 226 0 
-217 -746 -226 0 
-226 -747 235 0 
-226 -747 -235 0 
-25 -748 236 0 
-25 -748 -236 0 
-236 -749 245 0 
-236 -749 -245 0 
-245 -750 254 0 
-245 -750 -254 0 
-254 -751 263 0 
-254 -751 -263 0 
-263 -752 272 0 
-263 -752 -272 0 
-272 -753 281 0 
-272 -753 -281 0 
-25 -754 282 0 
-25 -754 -236 0 
-236 -755 291 0 
-236 -755 -245 0 
-245 -756 300 0 
-245 -756 -254 0 
-254 -757 309 0 
-254 -757 -263 0 
-263 -758 318 0 
-263 -758 -272 0 
-272 -759 327 0 
-272 -759 -281 0 
-34 -760 236 0 
-34 -760 -282 0 
-282 -761 245 0 
-282 -761 -291 0 
-291 -762 254 0 
-291 -762 -300 0 
-300 -763 263 0 
-300 -763 -309 0 
-309 -764 272 0 
-309 -764 -318 0 
-318 -765 281 0 
-318 -765 -327 0 
-34 -766 282 0 
-34 -766 -282 0 
-282 -767 291 0 
-282 -767 -291 0 
-291 -768 300 0 
-291 -768 -300 0 
-300 -769 309 0 
-300 -769 -309 0 
-309 -770 318 0 
-309 -770 -318 0 
-318 -771 327 0 
-318 -771 -327 0 
-7 -772 444 0 
-7 -772 -328 0 
-144 -773 453 0 
-144 -773 -333 0 
-153 -774 462 0 
-153 -774 -338 0 
-162 -775 471 0 
-162 -775 -343 0 
-171 -776 480 0 
-171 -776 -348 0 
-180 -777 489 0 
-180 -777 -353 0 
-7 -778 444 0 
-7 -778 -354 0 
-144 -779 453 0 
-144 -779 -359 0 
-153 -780 462 0 
-153 -780 -364 0 
-162 -781 471 0 
-162 -781 -369 0 
-171 -782 480 0 
-171 -782 -374 0 
-180 -783 489 0 
-180 -783 -379 0 
-16 -784 444 0 
-16 -784 -380 0 
-190 -785 453 0 
-190 -785 -385 0 
-199 -786 462 0 
-199 -786 -390 0 
-208 -787 471 0 
-208 -787 -395 0 
-217 -788 480 0 
-217 -788 -400 0 
-226 -789 489 0 
-226 -789 -405 0 
-16 -790 444 0 
-16 -790 -406 0 
-190 -791 453 0 
-190 -791 -411 0 
-199 -792 462 0 
-199 -792 -416 0 
-208 -793 471 0 
-208 -793 -421 0 
-217 -794 480 0 
-217 -794 -426 0 
-226 -795 489 0 
-226 -795 -431 0 
-25 -796 490 0 
-25 -796 -328 0 
-236 -797 499 0 
-236 -797 -333 0 
-245 -798 508 0 
-245 -798 -338 0 
-254 -799 517 0 
-254 -799 -343 0 
-263 -800 526 0 
-263 -800 -348 0 
-272 -801 535 0 
-272 -801 -353 0 
-25 -802 490 0 
-25 -802 -354 0 
-236 -803 499 0 
-236 -803 -359 0 
-245 -804 508 0 
-245 -804 -364 0 
-254 -805 517 0 
-254 -805 -369 0 
-263 -806 526 0 
-263 -806 -374 0 
-272 -807 535 0 
-272 -807 -379 0 
-34 -808 490 0 
-34 -808 -380 0 
-282 -809 499 0 
-282 -809 -385 0 
-291 -810 508 0 
-291 -810 -390 0 
-300 -811 517 0 
-300 -811 -395 0 
-309 -812 526 0 
-309 -812 -400 0 
-318 -813 535 0 
-318 -813 -405 0 
-34 -814 490 0 
-34 -814 -406 0 
-282 -815 499 0 
-282 -815 -411 0 
-291 -816 508 0 
-291 -816 -416 0 
-300 -817 517 0 
-300 -817 -421 0 
-309 -818 526 0 
-309 -818 -426 0 
-318 -819 535 0 
-318 -819 -431 0 
-7 -820 328 0 
-7 -820 -444 0 
-144 -821 333 0 
-144 -821 -453 0 
-153 -822 338 0 
-153 -822 -462 0 
-162 -823 343 0 
-162 -823 -471 0 
-171 -824 348 0 
-171 -824 -480 0 
-180 -825 353 0 
-180 -825 -489 0 
-7 -826 354 0 
-7 -826 -444 0 
-144 -827 359 0 
-144 -827 -453 0 
-153 -828 364 0 
-153 -828 -462 0 
-162 -829 369 0 
-162 -829 -471 0 
-171 -830 374 0 
-171 -830 -480 0 
-180 -831 379 0 
-180 -831 -489 0 
-16 -832 380 0 
-16 -832 -444 0 
-190 -833 385 0 
-190 -833 -453 0 
-199 -834 390 0 
-199 -834 -462 0 
-208 -835 395 0 
-208 -835 -471 0 
-217 -836 400 0 
-217 -836 -480 0 
-226 -837 405 0 
-226 -837 -489 0 
-16 -838 406 0 
-16 -838 -444 0 
-190 -839 411 0 
-190 -839 -453 0 
-199 -840 416 0 
-199 -840 -462 0 
-208 -841 421 0 
-208 -841 -471 0 
-217 -842 426 0 
-217 -842 -480 0 
-226 -843 431 0 
-226 -843 -489 0 
-25 -844 328 0 
-25 -844 -490 0 
-236 -845 333 0 
-236 -845 -499 0 
-245 -846 338 0 
-245 -846 -508 0 
-254 -847 343 0 
-254 -847 -517 0 
-263 -848 348 0 
-263 -848 -526 0 
-272 -849 353 0 
-272 -849 -535 0 
-25 -850 354 0 
-25 -850 -490 0 
-236 -851 359 0 
-236 -851 -499 0 
-245 -852 364 0 
-245 -852 -508 0 
-254 -853 369 0 
-254 -853 -517 0 
-263 -854 374 0 
-263 -854 -526 0 
-272 -855 379 0 
-272 -855 -535 0 
-34 -856 380 0 
-34 -856 -490 0 
-282 -857 385 0 
-282 -857 -499 0 
-291 -858 390 0 
-291 -858 -508 0 
-300 -859 395 0 
-300 -859 -517 0 
-309 -860 400 0 
-309 -860 -526 0 
-318 -861 405 0 
-318 -861 -535 0 
-34 -862 406 0 
-34 -862 -490 0 
-282 -863 411 0 
-282 -863 -499 0 
-291 -864 416 0 
-291 -864 -508 0 
-300 -865 421 0 
-300 -865 -517 0 
-309 -866 426 0 
-309 -866 -526 0 
-318 -867 431 0 
-318 -867 -535 0 
-82 -868 624 0 
-82 -868 -536 0 
-536 -869 629 0 
-536 -869 -538 0 
-538 -870 634 0 
-538 -870 -540 0 
-540 -871 639 0 
-540 -871 -542 0 
-542 -872 644 0 
-542 -872 -544 0 
-544 -873 649 0 
-544 -873 -546 0 
-84 -874 624 0 
-84 -874 -547 0 
-547 -875 629 0 
-547 -875 -549 0 
-549 -876 634 0 
-549 -876 -551 0 
-551 -877 639 0 
-551 -877 -553 0 
-553 -878 644 0 
-553 -878 -555 0 
-555 -879 649 0 
-555 -879 -557 0 
-86 -880 624 0 
-86 -880 -558 0 
-558 -881 629 0 
-558 -881 -560 0 
-560 -882 634 0 
-560 -882 -562 0 
-562 -883 639 0 
-562 -883 -564 0 
-564 -884 644 0 
-564 -884 -566 0 
-566 -885 649 0 
-566 -885 -568 0 
-88 -886 624 0 
-88 -886 -569 0 
-569 -887 629 0 
-569 -887 -571 0 
-571 -888 634 0 
-571 -888 -573 0 
-573 -889 639 0 
-573 -889 -575 0 
-575 -890 644 0 
-575 -890 -577 0 
-577 -891 649 0 
-577 -891 -579 0 
-90 -892 650 0 
-90 -892 -580 0 
-580 -893 655 0 
-580 -893 -582 0 
-582 -894 660 0 
-582 -894 -584 0 
-584 -895 665 0 
-584 -895 -586 0 
-586 -896 670 0 
-586 -896 -588 0 
-588 -897 675 0 
-588 -897 -590 0 
-92 -898 650 0 
-92 -898 -591 0 
-591 -899 655 0 
-591 -899 -593 0 
-593 -900 660 0 
-593 -900 -595 0 
-595 -901 665 0 
-595 -901 -597 0 
-597 -902 670 0 
-597 -902 -599 0 
-599 -903 675 0 
-599 -903 -601 0 
-94 -904 650 0 
-94 -904 -602 0 
-602 -905 655 0 
-602 -905 -604 0 
-604 -906 660 0 
-604 -906 -606 0 
-606 -907 665 0 
-606 -907 -608 0 
-608 -908 670 0 
-608 -908 -610 0 
-610 -909 675 0 
-610 -909 -612 0 
-96 -910 650 0 
-96 -910 -613 0 
-613 -911 655 0 
-613 -911 -615 0 
-615 -912 660 0 
-615 -912 -617 0 
-617 -913 665 0 
-617 -913 -619 0 
-619 -914 670 0 
-619 -914 -621 0 
-621 -915 675 0 
-621 -915 -623 0 
-1 108 0 
1 -108 0 
-108 109 0 
108 -109 0 
-109 110 0 
109 -110 0 
-110 111 0 
110 -111 0 
-111 112 0 
111 -112 0 
-112 113 0 
112 -113 0 
-2 114 0 
2 -114 0 
-114 115 0 
114 -115 0 
-115 116 0 
115 -116 0 
-116 117 0 
116 -117 0 
-117 118 0 
117 -118 0 
-118 119 0 
118 -119 0 
-3 120 0 
3 -120 0 
-120 121 0 
120 -121 0 
-121 122 0 
121 -122 0 
-122 123 0 
122 -123 0 
-123 124 0 
123 -124 0 
-124 125 0 
124 -125 0 
-4 126 0 
4 -126 0 
-126 127 0 
126 -127 0 
-127 128 0 
127 -128 0 
-128 129 0 
128 -129 0 
-129 130 0 
129 -130 0 
-130 131 0 
130 -131 0 
-5 132 0 
5 -132 0 
-132 133 0 
132 -133 0 
-133 134 0 
133 -134 0 
-134 135 0 
134 -135 0 
-135 136 0 
135 -136 0 
-136 137 0 
136 -137 0 
-6 138 0 
6 -138 0 
-138 139 0 
138 -139 0 
-139 140 0 
139 -140 0 
-140 141 0 
140 -141 0 
-141 142 0 
141 -142 0 
-142 143 0 
142 -143 0 
-7 -676 8 0 
-8 7 0 
-8 676 0 
-7 -682 9 0 
-9 7 0 
-9 682 0 
-7 -724 10 0 
-10 7 0 
-10 724 0 
-7 -730 11 0 
-11 7 0 
-11 730 0 
8 9 10 11 -7 144 0 
-7 -676 12 0 
-12 7 0 
-12 676 0 
-16 -688 13 0 
-13 16 0 
-13 688 0 
-7 -724 14 0 
-14 7 0 
-14 724 0 
-16 -736 15 0 
-15 16 0 
-15 736 0 
12 13 14 15 7 -144 0 
-144 -677 145 0 
-145 144 0 
-145 677 0 
-144 -683 146 0 
-146 144 0 
-146 683 0 
-144 -725 147 0 
-147 144 0 
-147 725 0 
-144 -731 148 0 
-148 144 0 
-148 731 0 
145 146 147 148 -144 153 0 
-144 -677 149 0 
-149 144 0 
-149 677 0 
-190 -689 150 0 
-150 190 0 
-150 689 0 
-144 -725 151 0 
-151 144 0 
-151 725 0 
-190 -737 152 0 
-152 190 0 
-152 737 0 
149 150 151 152 144 -153 0 
-153 -678 154 0 
-154 153 0 
-154 678 0 
-153 -684 155 0 
-155 153 0 
-155 684 0 
-153 -726 156 0 
-156 153 0 
-156 726 0 
-153 -732 157 0 
-157 153 0 
-157 732 0 
154 155 156 157 -153 162 0 
-153 -678 158 0 
-158 153 0 
-158 678 0 
-199 -690 159 0 
-159 199 0 
-159 690 0 
-153 -726 160 0 
-160 153 0 
-160 726 0 
-199 -738 161 0 
-161 199 0 
-161 738 0 
158 159 160 161 153 -162 0 
-162 -679 163 0 
-163 162 0 
-163 679 0 
-162 -685 164 0 
-164 162 0 
-164 685 0 
-162 -727 165 0 
-165 162 0 
-165 727 0 
-162 -733 166 0 
-166 162 0 
-166 733 0 
163 164 165 166 -162 171 0 
-162 -679 167 0 
-167 162 0 
-167 679 0 
-208 -691 168 0 
-168 208 0 
-168 691 0 
-162 -727 169 0 
-169 162 0 
-169 727 0 
-208 -739 170 0 
-170 208 0 
-170 739 0 
167 168 169 170 162 -171 0 
-171 -680 172 0 
-172 171 0 
-172 680 0 
-171 -686 173 0 
-173 171 0 
-173 686 0 
-171 -728 174 0 
-174 171 0 
-174 728 0 
-171 -734 175 0 
-175 171 0 
-175 734 0 
172 173 174 175 -171 180 0 
-171 -680 176 0 
-176 171 0 
-176 680 0 
-217 -692 177 0 
-177 217 0 
-177 692 0 
-171 -728 178 0 
-178 171 0 
-178 728 0 
-217 -740 179 0 
-179 217 0 
-179 740 0 
176 177 178 179 171 -180 0 
-180 -681 181 0 
-181 180 0 
-181 681 0 
-180 -687 182 0 
-182 180 0 
-182 687 0 
-180 -729 183 0 
-183 180 0 
-183 729 0 
-180 -735 184 0 
-184 180 0 
-184 735 0 
181 182 183 184 -180 189 0 
-180 -681 185 0 
-185 180 0 
-185 681 0 
-226 -693 186 0 
-186 226 0 
-186 693 0 
-180 -729 187 0 
-187 180 0 
-187 729 0 
-226 -741 188 0 
-188 226 0 
-188 741 0 
185 186 187 188 180 -189 0 
-16 -688 17 0 
-17 16 0 
-17 688 0 
-16 -694 18 0 
-18 16 0 
-18 694 0 
-16 -736 19 0 
-19 16 0 
-19 736 0 
-16 -742 20 0 
-20 16 0 
-20 742 0 
17 18 19 20 -16 190 0 
-7 -682 21 0 
-21 7 0 
-21 682 0 
-16 -694 22 0 
-22 16 0 
-22 694 0 
-7 -730 23 0 
-23 7 0 
-23 730 0 
-16 -742 24 0 
-24 16 0 
-24 742 0 
21 22 23 24 16 -190 0 
-190 -689 191 0 
-191 190 0 
-191 689 0 
-190 -695 192 0 
-192 190 0 
-192 695 0 
-190 -737 193 0 
-193 190 0 
-193 737 0 
-190 -743 194 0 
-194 190 0 
-194 743 0 
191 192 193 194 -190 199 0 
-144 -683 195 0 
-195 144 0 
-195 683 0 
-190 -695 196 0 
-196 190 0 
-196 695 0 
-144 -731 197 0 
-197 144 0 
-197 731 0 
-190 -743 198 0 
-198 190 0 
-198 743 0 
195 196 197 198 190 -199 0 
-199 -690 200 0 
-200 199 0 
-200 690 0 
-199 -696 201 0 
-201 199 0 
-201 696 0 
-199 -738 202 0 
-202 199 0 
-202 738 0 
-199 -744 203 0 
-203 199 0 
-203 744 0 
200 201 202 203 -199 208 0 
-153 -684 204 0 
-204 153 0 
-204 684 0 
-199 -696 205 0 
-205 199 0 
-205 696 0 
-153 -732 206 0 
-206 153 0 
-206 732 0 
-199 -744 207 0 
-207 199 0 
-207 744 0 
204 205 206 207 199 -208 0 
-208 -691 209 0 
-209 208 0 
-209 691 0 
-208 -697 210 0 
-210 208 0 
-210 697 0 
-208 -739 211 0 
-211 208 0 
-211 739 0 
-208 -745 212 0 
-212 208 0 
-212 745 0 
209 210 211 212 -208 217 0 
-162 -685 213 0 
-213 162 0 
-213 685 0 
-208 -697 214 0 
-214 208 0 
-214 697 0 
-162 -733 215 0 
-215 162 0 
-215 733 0 
-208 -745 216 0 
-216 208 0 
-216 745 0 
213 214 215 216 208 -217 0 
-217 -692 218 0 
-218 217 0 
-218 692 0 
-217 -698 219 0 
-219 217 0 
-219 698 0 
-217 -740 220 0 
-220 217 0 
-220 740 0 
-217 -746 221 0 
-221 217 0 
-221 746 0 
218 219 220 221 -217 226 0 
-171 -686 222 0 
-222 171 0 
-222 686 0 
-217 -698 223 0 
-223 217 0 
-223 698 0 
-171 -734 224 0 
-224 171 0 
-224 734 0 
-217 -746 225 0 
-225 217 0 
-225 746 0 
222 223 224 225 217 -226 0 
-226 -693 227 0 
-227 226 0 
-227 693 0 
-226 -699 228 0 
-228 226 0 
-228 699 0 
-226 -741 229 0 
-229 226 0 
-229 741 0 
-226 -747 230 0 
-230 226 0 
-230 747 0 
227 228 229 230 -226 235 0 
-180 -687 231 0 
-231 180 0 
-231 687 0 
-226 -699 232 0 
-232 226 0 
-232 699 0 
-180 -735 233 0 
-233 180 0 
-233 735 0 
-226 -747 234 0 
-234 226 0 
-234 747 0 
231 232 233 234 226 -235 0 
-25 -700 26 0 
-26 25 0 
-26 700 0 
-25 -706 27 0 
-27 25 0 
-27 706 0 
-25 -748 28 0 
-28 25 0 
-28 748 0 
-25 -754 29 0 
-29 25 0 
-29 754 0 
26 27 28 29 -25 236 0 
-25 -700 30 0 
-30 25 0 
-30 700 0 
-34 -712 31 0 
-31 34 0 
-31 712 0 
-25 -748 32 0 
-32 25 0 
-32 748 0 
-34 -760 33 0 
-33 34 0 
-33 760 0 
30 31 32 33 25 -236 0 
-236 -701 237 0 
-237 236 0 
-237 701 0 
-236 -707 238 0 
-238 236 0 
-238 707 0 
-236 -749 239 0 
-239 236 0 
-239 749 0 
-236 -755 240 0 
-240 236 0 
-240 755 0 
237 238 239 240 -236 245 0 
-236 -701 241 0 
-241 236 0 
-241 701 0 
-282 -713 242 0 
-242 282 0 
-242 713 0 
-236 -749 243 0 
-243 236 0 
-243 749 0 
-282 -761 244 0 
-244 282 0 
-244 761 0 
241 242 243 244 236 -245 0 
-245 -702 246 0 
-246 245 0 
-246 702 0 
-245 -708 247 0 
-247 245 0 
-247 708 0 
-245 -750 248 0 
-248 245 0 
-248 750 0 
-245 -756 249 0 
-249 245 0 
-249 756 0 
246 247 248 249 -245 254 0 
-245 -702 250 0 
-250 245 0 
-250 702 0 
-291 -714 251 0 
-251 291 0 
-251 714 0 
-245 -750 252 0 
-252 245 0 
-252 750 0 
-291 -762 253 0 
-253 291 0 
-253 762 0 
250 251 252 253 245 -254 0 
-254 -703 255 0 
-255 254 0 
-255 703 0 
-254 -709 256 0 
-256 254 0 
-256 709 0 
-254 -751 257 0 
-257 254 0 
-257 751 0 
-254 -757 258 0 
-258 254 0 
-258 757 0 
255 256 257 258 -254 263 0 
-254 -703 259 0 
-259 254 0 
-259 703 0 
-300 -715 260 0 
-260 300 0 
-260 715 0 
-254 -751 261 0 
-261 254 0 
-261 751 0 
-300 -763 262 0 
-262 300 0 
-262 763 0 
259 260 261 262 254 -263 0 
-263 -704 264 0 
-264 263 0 
-264 704 0 
-263 -710 265 0 
-265 263 0 
-265 710 0 
-263 -752 266 0 
-266 263 0 
-266 752 0 
-263 -758 267 0 
-267 263 0 
-267 758 0 
264 265 266 267 -263 272 0 
-263 -704 268 0 
-268 263 0 
-268 704 0 
-309 -716 269 0 
-269 309 0 
-269 716 0 
-263 -752 270 0 
-270 263 0 
-270 752 0 
-309 -764 271 0 
-271 309 0 
-271 764 0 
268 269 270 271 263 -272 0 
-272 -705 273 0 
-273 272 0 
-273 705 0 
-272 -711 274 0 
-274 272 0 
-274 711 0 
-272 -753 275 0 
-275 272 0 
-275 753 0 
-272 -759 276 0 
-276 272 0 
-276 759 0 
273 274 275 276 -272 281 0 
-272 -705 277 0 
-277 272 0 
-277 705 0 
-318 -717 278 0 
-278 318 0 
-278 717 0 
-272 -753 279 0 
-279 272 0 
-279 753 0 
-318 -765 280 0 
-280 318 0 
-280 765 0 
277 278 279 280 272 -281 0 
-34 -712 35 0 
-35 34 0 
-35 712 0 
-34 -718 36 0 
-36 34 0 
-36 718 0 
-34 -760 37 0 
-37 34 0 
-37 760 0 
-34 -766 38 0 
-38 34 0 
-38 766 0 
35 36 37 38 -34 282 0 
-25 -706 39 0 
-39 25 0 
-39 706 0 
-34 -718 40 0 
-40 34 0 
-40 718 0 
-25 -754 41 0 
-41 25 0 
-41 754 0 
-34 -766 42 0 
-42 34 0 
-42 766 0 
39 40 41 42 34 -282 0 
-282 -713 283 0 
-283 282 0 
-283 713 0 
-282 -719 284 0 
-284 282 0 
-284 719 0 
-282 -761 285 0 
-285 282 0 
-285 761 0 
-282 -767 286 0 
-286 282 0 
-286 767 0 
283 284 285 286 -282 291 0 
-236 -707 287 0 
-287 236 0 
-287 707 0 
-282 -719 288 0 
-288 282 0 
-288 719 0 
-236 -755 289 0 
-289 236 0 
-289 755 0 
-282 -767 290 0 
-290 282 0 
-290 767 0 
287 288 289 290 282 -291 0 
-291 -714 292 0 
-292 291 0 
-292 714 0 
-291 -720 293 0 
-293 291 0 
-293 720 0 
-291 -762 294 0 
-294 291 0 
-294 762 0 
-291 -768 295 0 
-295 291 0 
-295 768 0 
292 293 294 295 -291 300 0 
-245 -708 296 0 
-296 245 0 
-296 708 0 
-291 -720 297 0 
-297 291 0 
-297 720 0 
-245 -756 298 0 
-298 245 0 
-298 756 0 
-291 -768 299 0 
-299 291 0 
-299 768 0 
296 297 298 299 291 -300 0 
-300 -715 301 0 
-301 300 0 
-301 715 0 
-300 -721 302 0 
-302 300 0 
-302 721 0 
-300 -763 303 0 
-303 300 0 
-303 763 0 
-300 -769 304 0 
-304 300 0 
-304 769 0 
301 302 303 304 -300 309 0 
-254 -709 305 0 
-305 254 0 
-305 709 0 
-300 -721 306 0 
-306 300 0 
-306 721 0 
-254 -757 307 0 
-307 254 0 
-307 757 0 
-300 -769 308 0 
-308 300 0 
-308 769 0 
305 306 307 308 300 -309 0 
-309 -716 310 0 
-310 309 0 
-310 716 0 
-309 -722 311 0 
-311 309 0 
-311 722 0 
-309 -764 312 0 
-312 309 0 
-312 764 0 
-309 -770 313 0 
-313 309 0 
-313 770 0 
310 311 312 313 -309 318 0 
-263 -710 314 0 
-314 263 0 
-314 710 0 
-309 -722 315 0 
-315 309 0 
-315 722 0 
-263 -758 316 0 
-316 263 0 
-316 758 0 
-309 -770 317 0 
-317 309 0 
-317 770 0 
314 315 316 317 309 -318 0 
-318 -717 319 0 
-319 318 0 
-319 717 0 
-318 -723 320 0 
-320 318 0 
-320 723 0 
-318 -765 321 0 
-321 318 0 
-321 765 0 
-318 -771 322 0 
-322 318 0 
-322 771 0 
319 320 321 322 -318 327 0 
-272 -711 323 0 
-323 272 0 
-323 711 0 
-318 -723 324 0 
-324 318 0 
-324 723 0 
-272 -759 325 0 
-325 272 0 
-325 759 0 
-318 -771 326 0 
-326 318 0 
-326 771 0 
323 324 325 326 318 -327 0 
-7 -772 43 0 
-43 7 0 
-43 772 0 
-25 -796 44 0 
-44 25 0 
-44 796 0 
43 44 328 0 
-7 -820 45 0 
-45 7 0 
-45 820 0 
-25 -844 46 0 
-46 25 0 
-46 844 0 
-144 -773 329 0 
-329 144 0 
-329 773 0 
-236 -797 330 0 
-330 236 0 
-330 797 0 
329 330 -328 333 0 
-144 -821 331 0 
-331 144 0 
-331 821 0 
-236 -845 332 0 
-332 236 0 
-332 845 0 
331 332 328 -333 0 
-153 -774 334 0 
-334 153 0 
-334 774 0 
-245 -798 335 0 
-335 245 0 
-335 798 0 
334 335 -333 338 0 
-153 -822 336 0 
-336 153 0 
-336 822 0 
-245 -846 337 0 
-337 245 0 
-337 846 0 
336 337 333 -338 0 
-162 -775 339 0 
-339 162 0 
-339 775 0 
-254 -799 340 0 
-340 254 0 
-340 799 0 
339 340 -338 343 0 
-162 -823 341 0 
-341 162 0 
-341 823 0 
-254 -847 342 0 
-342 254 0 
-342 847 0 
341 342 338 -343 0 
-171 -776 344 0 
-344 171 0 
-344 776 0 
-263 -800 345 0 
-345 263 0 
-345 800 0 
344 345 -343 348 0 
-171 -824 346 0 
-346 171 0 
-346 824 0 
-263 -848 347 0 
-347 263 0 
-347 848 0 
346 347 343 -348 0 
-180 -777 349 0 
-349 180 0 
-349 777 0 
-272 -801 350 0 
-350 272 0 
-350 801 0 
349 350 -348 353 0 
-180 -825 351 0 
-351 180 0 
-351 825 0 
-272 -849 352 0 
-352 272 0 
-352 849 0 
351 352 348 -353 0 
-7 -778 48 0 
-48 7 0 
-48 778 0 
-25 -802 49 0 
-49 25 0 
-49 802 0 
48 49 -47 354 0 
-7 -826 50 0 
-50 7 0 
-50 826 0 
-25 -850 51 0 
-51 25 0 
-51 850 0 
50 51 47 -354 0 
-144 -779 355 0 
-355 144 0 
-355 779 0 
-236 -803 356 0 
-356 236 0 
-356 803 0 
355 356 -354 359 0 
-144 -827 357 0 
-357 144 0 
-357 827 0 
-236 -851 358 0 
-358 236 0 
-358 851 0 
357 358 354 -359 0 
-153 -780 360 0 
-360 153 0 
-360 780 0 
-245 -804 361 0 
-361 245 0 
-361 804 0 
360 361 -359 364 0 
-153 -828 362 0 
-362 153 0 
-362 828 0 
-245 -852 363 0 
-363 245 0 
-363 852 0 
362 363 359 -364 0 
-162 -781 365 0 
-365 162 0 
-365 781 0 
-254 -805 366 0 
-366 254 0 
-366 805 0 
365 366 -364 369 0 
-162 -829 367 0 
-367 162 0 
-367 829 0 
-254 -853 368 0 
-368 254 0 
-368 853 0 
367 368 364 -369 0 
-171 -782 370 0 
-370 171 0 
-370 782 0 
-263 -806 371 0 
-371 263 0 
-371 806 0 
370 371 -369 374 0 
-171 -830 372 0 
-372 171 0 
-372 830 0 
-263 -854 373 0 
-373 263 0 
-373 854 0 
372 373 369 -374 0 
-180 -783 375 0 
-375 180 0 
-375 783 0 
-272 -807 376 0 
-376 272 0 
-376 807 0 
375 376 -374 379 0 
-180 -831 377 0 
-377 180 0 
-377 831 0 
-272 -855 378 0 
-378 272 0 
-378 855 0 
377 378 374 -379 0 
-16 -784 53 0 
-53 16 0 
-53 784 0 
-34 -808 54 0 
-54 34 0 
-54 808 0 
53 54 -52 380 0 
-16 -832 55 0 
-55 16 0 
-55 832 0 
-34 -856 56 0 
-56 34 0 
-56 856 0 
55 56 52 -380 0 
-190 -785 381 0 
-381 190 0 
-381 785 0 
-282 -809 382 0 
-382 282 0 
-382 809 0 
381 382 -380 385 0 
-190 -833 383 0 
-383 190 0 
-383 833 0 
-282 -857 384 0 
-384 282 0 
-384 857 0 
383 384 380 -385 0 
-199 -786 386 0 
-386 199 0 
-386 786 0 
-291 -810 387 0 
-387 291 0 
-387 810 0 
386 387 -385 390 0 
-199 -834 388 0 
-388 199 0 
-388 834 0 
-291 -858 389 0 
-389 291 0 
-389 858 0 
388 389 385 -390 0 
-208 -787 391 0 
-391 208 0 
-391 787 0 
-300 -811 392 0 
-392 300 0 
-392 811 0 
391 392 -390 395 0 
-208 -835 393 0 
-393 208 0 
-393 835 0 
-300 -859 394 0 
-394 300 0 
-394 859 0 
393 394 390 -395 0 
-217 -788 396 0 
-396 217 0 
-396 788 0 
-309 -812 397 0 
-397 309 0 
-397 812 0 
396 397 -395 400 0 
-217 -836 398 0 
-398 217 0 
-398 836 0 
-309 -860 399 0 
-399 309 0 
-399 860 0 
398 399 395 -400 0 
-226 -789 401 0 
-401 226 0 
-401 789 0 
-318 -813 402 0 
-402 318 0 
-402 813 0 
401 402 -400 405 0 
-226 -837 403 0 
-403 226 0 
-403 837 0 
-318 -861 404 0 
-404 318 0 
-404 861 0 
403 404 400 -405 0 
-16 -790 58 0 
-58 16 0 
-58 790 0 
-34 -814 59 0 
-59 34 0 
-59 814 0 
58 59 -57 406 0 
-16 -838 60 0 
-60 16 0 
-60 838 0 
-34 -862 61 0 
-61 34 0 
-61 862 0 
60 61 57 -406 0 
-190 -791 407 0 
-407 190 0 
-407 791 0 
-282 -815 408 0 
-408 282 0 
-408 815 0 
407 408 -406 411 0 
-190 -839 409 0 
-409 190 0 
-409 839 0 
-282 -863 410 0 
-410 282 0 
-410 863 0 
409 410 406 -411 0 
-199 -792 412 0 
-412 199 0 
-412 792 0 
-291 -816 413 0 
-413 291 0 
-413 816 0 
412 413 -411 416 0 
-199 -840 414 0 
-414 199 0 
-414 840 0 
-291 -864 415 0 
-415 291 0 
-415 864 0 
414 415 411 -416 0 
-208 -793 417 0 
-417 208 0 
-417 793 0 
-300 -817 418 0 
-418 300 0 
-418 817 0 
417 418 -416 421 0 
-208 -841 419 0 
-419 208 0 
-419 841 0 
-300 -865 420 0 
-420 300 0 
-420 865 0 
419 420 416 -421 0 
-217 -794 422 0 
-422 217 0 
-422 794 0 
-309 -818 423 0 
-423 309 0 
-423 818 0 
422 423 -421 426 0 
-217 -842 424 0 
-424 217 0 
-424 842 0 
-309 -866 425 0 
-425 309 0 
-425 866 0 
424 425 421 -426 0 
-226 -795 427 0 
-427 226 0 
-427 795 0 
-318 -819 428 0 
-428 318 0 
-428 819 0 
427 428 -426 431 0 
-226 -843 429 0 
-429 226 0 
-429 843 0 
-318 -867 430 0 
-430 318 0 
-430 867 0 
429 430 426 -431 0 
-62 432 0 
62 -432 0 
-432 433 0 
432 -433 0 
-433 434 0 
433 -434 0 
-434 435 0 
434 -435 0 
-435 436 0 
435 -436 0 
-436 437 0 
436 -437 0 
-63 438 0 
63 -438 0 
-438 439 0 
438 -439 0 
-439 440 0 
439 -440 0 
-440 441 0 
440 -441 0 
-441 442 0 
441 -442 0 
-442 443 0 
442 -443 0 
-7 -820 65 0 
-65 7 0 
-65 820 0 
-7 -826 66 0 
-66 7 0 
-66 826 0 
-16 -832 67 0 
-67 16 0 
-67 832 0 
-16 -838 68 0 
-68 16 0 
-68 838 0 
65 66 67 68 -64 444 0 
-7 -772 69 0 
-69 7 0 
-69 772 0 
-7 -778 70 0 
-70 7 0 
-70 778 0 
-16 -784 71 0 
-71 16 0 
-71 784 0 
-16 -790 72 0 
-72 16 0 
-72 790 0 
69 70 71 72 64 -444 0 
-144 -821 445 0 
-445 144 0 
-445 821 0 
-144 -827 446 0 
-446 144 0 
-446 827 0 
-190 -833 447 0 
-447 190 0 
-447 833 0 
-190 -839 448 0 
-448 190 0 
-448 839 0 
445 446 447 448 -444 453 0 
-144 -773 449 0 
-449 144 0 
-449 773 0 
-144 -779 450 0 
-450 144 0 
-450 779 0 
-190 -785 451 0 
-451 190 0 
-451 785 0 
-190 -791 452 0 
-452 190 0 
-452 791 0 
449 450 451 452 444 -453 0 
-153 -822 454 0 
-454 153 0 
-454 822 0 
-153 -828 455 0 
-455 153 0 
-455 828 0 
-199 -834 456 0 
-456 199 0 
-456 834 0 
-199 -840 457 0 
-457 199 0 
-457 840 0 
454 455 456 457 -453 462 0 
-153 -774 458 0 
-458 153 0 
-458 774 0 
-153 -780 459 0 
-459 153 0 
-459 780 0 
-199 -786 460 0 
-460 199 0 
-460 786 0 
-199 -792 461 0 
-461 199 0 
-461 792 0 
458 459 460 461 453 -462 0 
-162 -823 463 0 
-463 162 0 
-463 823 0 
-162 -829 464 0 
-464 162 0 
-464 829 0 
-208 -835 465 0 
-465 208 0 
-465 835 0 
-208 -841 466 0 
-466 208 0 
-466 841 0 
463 464 465 466 -462 471 0 
-162 -775 467 0 
-467 162 0 
-467 775 0 
-162 -781 468 0 
-468 162 0 
-468 781 0 
-208 -787 469 0 
-469 208 0 
-469 787 0 
-208 -793 470 0 
-470 208 0 
-470 793 0 
467 468 469 470 462 -471 0 
-171 -824 472 0 
-472 171 0 
-472 824 0 
-171 -830 473 0 
-473 171 0 
-473 830 0 
-217 -836 474 0 
-474 217 0 
-474 836 0 
-217 -842 475 0 
-475 217 0 
-475 842 0 
472 473 474 475 -471 480 0 
-171 -776 476 0 
-476 171 0 
-476 776 0 
-171 -782 477 0 
-477 171 0 
-477 782 0 
-217 -788 478 0 
-478 217 0 
-478 788 0 
-217 -794 479 0 
-479 217 0 
-479 794 0 
476 477 478 479 471 -480 0 
-180 -825 481 0 
-481 180 0 
-481 825 0 
-180 -831 482 0 
-482 180 0 
-482 831 0 
-226 -837 483 0 
-483 226 0 
-483 837 0 
-226 -843 484 0 
-484 226 0 
-484 843 0 
481 482 483 484 -480 489 0 
-180 -777 485 0 
-485 180 0 
-485 777 0 
-180 -783 486 0 
-486 180 0 
-486 783 0 
-226 -789 487 0 
-487 226 0 
-487 789 0 
-226 -795 488 0 
-488 226 0 
-488 795 0 
485 486 487 488 480 -489 0 
-25 -844 74 0 
-74 25 0 
-74 844 0 
-25 -850 75 0 
-75 25 0 
-75 850 0 
-34 -856 76 0 
-76 34 0 
-76 856 0 
-34 -862 77 0 
-77 34 0 
-77 862 0 
74 75 76 77 -73 490 0 
-25 -796 78 0 
-78 25 0 
-78 796 0 
-25 -802 79 0 
-79 25 0 
-79 802 0 
-34 -808 80 0 
-80 34 0 
-80 808 0 
-34 -814 81 0 
-81 34 0 
-81 814 0 
78 79 80 81 73 -490 0 
-236 -845 491 0 
-491 236 0 
-491 845 0 
-236 -851 492 0 
-492 236 0 
-492 851 0 
-282 -857 493 0 
-493 282 0 
-493 857 0 
-282 -863 494 0 
-494 282 0 
-494 863 0 
491 492 493 494 -490 499 0 
-236 -797 495 0 
-495 236 0 
-495 797 0 
-236 -803 496 0 
-496 236 0 
-496 803 0 
-282 -809 497 0 
-497 282 0 
-497 809 0 
-282 -815 498 0 
-498 282 0 
-498 815 0 
495 496 497 498 490 -499 0 
-245 -846 500 0 
-500 245 0 
-500 846 0 
-245 -852 501 0 
-501 245 0 
-501 852 0 
-291 -858 502 0 
-502 291 0 
-502 858 0 
-291 -864 503 0 
-503 291 0 
-503 864 0 
500 501 502 503 -499 508 0 
-245 -798 504 0 
-504 245 0 
-504 798 0 
-245 -804 505 0 
-505 245 0 
-505 804 0 
-291 -810 506 0 
-506 291 0 
-506 810 0 
-291 -816 507 0 
-507 291 0 
-507 816 0 
504 505 506 507 499 -508 0 
-254 -847 509 0 
-509 254 0 
-509 847 0 
-254 -853 510 0 
-510 254 0 
-510 853 0 
-300 -859 511 0 
-511 300 0 
-511 859 0 
-300 -865 512 0 
-512 300 0 
-512 865 0 
509 510 511 512 -508 517 0 
-254 -799 513 0 
-513 254 0 
-513 799 0 
-254 -805 514 0 
-514 254 0 
-514 805 0 
-300 -811 515 0 
-515 300 0 
-515 811 0 
-300 -817 516 0 
-516 300 0 
-516 817 0 
513 514 515 516 508 -517 0 
-263 -848 518 0 
-518 263 0 
-518 848 0 
-263 -854 519 0 
-519 263 0 
-519 854 0 
-309 -860 520 0 
-520 309 0 
-520 860 0 
-309 -866 521 0 
-521 309 0 
-521 866 0 
518 519 520 521 -517 526 0 
-263 -800 522 0 
-522 263 0 
-522 800 0 
-263 -806 523 0 
-523 263 0 
-523 806 0 
-309 -812 524 0 
-524 309 0 
-524 812 0 
-309 -818 525 0 
-525 309 0 
-525 818 0 
522 523 524 525 517 -526 0 
-272 -849 527 0 
-527 272 0 
-527 849 0 
-272 -855 528 0 
-528 272 0 
-528 855 0 
-318 -861 529 0 
-529 318 0 
-529 861 0 
-318 -867 530 0 
-530 318 0 
-530 867 0 
527 528 529 530 -526 535 0 
-272 -801 531 0 
-531 272 0 
-531 801 0 
-272 -807 532 0 
-532 272 0 
-532 807 0 
-318 -813 533 0 
-533 318 0 
-533 813 0 
-318 -819 534 0 
-534 318 0 
-534 819 0 
531 532 533 534 526 -535 0 
-82 -868 83 0 
-83 82 0 
-83 868 0 
83 -82 536 0 
82 -536 0 
-536 -869 537 0 
-537 536 0 
-537 869 0 
537 -536 538 0 
536 -538 0 
-538 -870 539 0 
-539 538 0 
-539 870 0 
539 -538 540 0 
538 -540 0 
-540 -871 541 0 
-541 540 0 
-541 871 0 
541 -540 542 0 
540 -542 0 
-542 -872 543 0 
-543 542 0 
-543 872 0 
543 -542 544 0 
542 -544 0 
-544 -873 545 0 
-545 544 0 
-545 873 0 
545 -544 546 0 
544 -546 0 
-84 -874 85 0 
-85 84 0 
-85 874 0 
85 -84 547 0 
84 -547 0 
-547 -875 548 0 
-548 547 0 
-548 875 0 
548 -547 549 0 
547 -549 0 
-549 -876 550 0 
-550 549 0 
-550 876 0 
550 -549 551 0 
549 -551 0 
-551 -877 552 0 
-552 551 0 
-552 877 0 
552 -551 553 0 
551 -553 0 
-553 -878 554 0 
-554 553 0 
-554 878 0 
554 -553 555 0 
553 -555 0 
-555 -879 556 0 
-556 555 0 
-556 879 0 
556 -555 557 0 
555 -557 0 
-86 -880 87 0 
-87 86 0 
-87 880 0 
87 -86 558 0 
86 -558 0 
-558 -881 559 0 
-559 558 0 
-559 881 0 
559 -558 560 0 
558 -560 0 
-560 -882 561 0 
-561 560 0 
-561 882 0 
561 -560 562 0 
560 -562 0 
-562 -883 563 0 
-563 562 0 
-563 883 0 
563 -562 564 0 
562 -564 0 
-564 -884 565 0 
-565 564 0 
-565 884 0 
565 -564 566 0 
564 -566 0 
-566 -885 567 0 
-567 566 0 
-567 885 0 
567 -566 568 0 
566 -568 0 
-88 -886 89 0 
-89 88 0 
-89 886 0 
89 -88 569 0 
88 -569 0 
-569 -887 570 0 
-570 569 0 
-570 887 0 
570 -569 571 0 
569 -571 0 
-571 -888 572 0 
-572 571 0 
-572 888 0 
572 -571 573 0 
571 -573 0 
-573 -889 574 0 
-574 573 0 
-574 889 0 
574 -573 575 0 
573 -575 0 
-575 -890 576 0 
-576 575 0 
-576 890 0 
576 -575 577 0 
575 -577 0 
-577 -891 578 0 
-578 577 0 
-578 891 0 
578 -577 579 0 
577 -579 0 
-90 -892 91 0 
-91 90 0 
-91 892 0 
91 -90 580 0 
90 -580 0 
-580 -893 581 0 
-581 580 0 
-581 893 0 
581 -580 582 0 
580 -582 0 
-582 -894 583 0 
-583 582 0 
-583 894 0 
583 -582 584 0 
582 -584 0 
-584 -895 585 0 
-585 584 0 
-585 895 0 
585 -584 586 0 
584 -586 0 
-586 -896 587 0 
-587 586 0 
-587 896 0 
587 -586 588 0 
586 -588 0 
-588 -897 589 0 
-589 588 0 
-589 897 0 
589 -588 590 0 
588 -590 0 
-92 -898 93 0 
-93 92 0 
-93 898 0 
93 -92 591 0 
92 -591 0 
-591 -899 592 0 
-592 591 0 
-592 899 0 
592 -591 593 0 
591 -593 0 
-593 -900 594 0 
-594 593 0 
-594 900 0 
594 -593 595 0 
593 -595 0 
-595 -901 596 0 
-596 595 0 
-596 901 0 
596 -595 597 0 
595 -597 0 
-597 -902 598 0 
-598 597 0 
-598 902 0 
598 -597 599 0 
597 -599 0 
-599 -903 600 0 
-600 599 0 
-600 903 0 
600 -599 601 0 
599 -601 0 
-94 -904 95 0 
-95 94 0 
-95 904 0 
95 -94 602 0 
94 -602 0 
-602 -905 603 0 
-603 602 0 
-603 905 0 
603 -602 604 0 
602 -604 0 
-604 -906 605 0 
-605 604 0 
-605 906 0 
605 -604 606 0 
604 -606 0 
-606 -907 607 0 
-607 606 0 
-607 907 0 
607 -606 608 0 
606 -608 0 
-608 -908 609 0 
-609 608 0 
-609 908 0 
609 -608 610 0 
608 -610 0 
-610 -909 611 0 
-611 610 0 
-611 909 0 
611 -610 612 0 
610 -612 0 
-96 -910 97 0 
-97 96 0 
-97 910 0 
97 -96 613 0 
96 -613 0 
-613 -911 614 0 
-614 613 0 
-614 911 0 
614 -613 615 0 
613 -615 0 
-615 -912 616 0 
-616 615 0 
-616 912 0 
616 -615 617 0 
615 -617 0 
-617 -913 618 0 
-618 617 0 
-618 913 0 
618 -617 619 0 
617 -619 0 
-619 -914 620 0 
-620 619 0 
-620 914 0 
620 -619 621 0 
619 -621 0 
-621 -915 622 0 
-622 621 0 
-622 915 0 
622 -621 623 0 
621 -623 0 
-98 624 0 
-82 -868 99 0 
-99 82 0 
-99 868 0 
-84 -874 100 0 
-100 84 0 
-100 874 0 
-86 -880 101 0 
-101 86 0 
-101 880 0 
-88 -886 102 0 
-102 88 0 
-102 886 0 
99 100 101 102 98 -624 0 
-624 629 0 
-536 -869 625 0 
-625 536 0 
-625 869 0 
-547 -875 626 0 
-626 547 0 
-626 875 0 
-558 -881 627 0 
-627 558 0 
-627 881 0 
-569 -887 628 0 
-628 569 0 
-628 887 0 
625 626 627 628 624 -629 0 
-629 634 0 
-538 -870 630 0 
-630 538 0 
-630 870 0 
-549 -876 631 0 
-631 549 0 
-631 876 0 
-560 -882 632 0 
-632 560 0 
-632 882 0 
-571 -888 633 0 
-633 571 0 
-633 888 0 
630 631 632 633 629 -634 0 
-634 639 0 
-540 -871 635 0 
-635 540 0 
-635 871 0 
-551 -877 636 0 
-636 551 0 
-636 877 0 
-562 -883 637 0 
-637 562 0 
-637 883 0 
-573 -889 638 0 
-638 573 0 
-638 889 0 
635 636 637 638 634 -639 0 
-639 644 0 
-542 -872 640 0 
-640 542 0 
-640 872 0 
-553 -878 641 0 
-641 553 0 
-641 878 0 
-564 -884 642 0 
-642 564 0 
-642 884 0 
-575 -890 643 0 
-643 575 0 
-643 890 0 
640 641 642 643 639 -644 0 
-644 649 0 
-544 -873 645 0 
-645 544 0 
-645 873 0 
-555 -879 646 0 
-646 555 0 
-646 879 0 
-566 -885 647 0 
-647 566 0 
-647 885 0 
-577 -891 648 0 
-648 577 0 
-648 891 0 
645 646 647 648 644 -649 0 
-103 650 0 
-90 -892 104 0 
-104 90 0 
-104 892 0 
-92 -898 105 0 
-105 92 0 
-105 898 0 
-94 -904 106 0 
-106 94 0 
-106 904 0 
-96 -910 107 0 
-107 96 0 
-107 910 0 
104 105 106 107 103 -650 0 
-650 655 0 
-580 -893 651 0 
-651 580 0 
-651 893 0 
-591 -899 652 0 
-652 591 0 
-652 899 0 
-602 -905 653 0 
-653 602 0 
-653 905 0 
-613 -911 654 0 
-654 613 0 
-654 911 0 
651 652 653 654 650 -655 0 
-655 660 0 
-582 -894 656 0 
-656 582 0 
-656 894 0 
-593 -900 657 0 
-657 593 0 
-657 900 0 
-604 -906 658 0 
-658 604 0 
-658 906 0 
-615 -912 659 0 
-659 615 0 
-659 912 0 
656 657 658 659 655 -660 0 
-660 665 0 
-584 -895 661 0 
-661 584 0 
-661 895 0 
-595 -901 662 0 
-662 595 0 
-662 901 0 
-606 -907 663 0 
-663 606 0 
-663 907 0 
-617 -913 664 0 
-664 617 0 
-664 913 0 
661 662 663 664 660 -665 0 
-665 670 0 
-586 -896 666 0 
-666 586 0 
-666 896 0 
-597 -902 667 0 
-667 597 0 
-667 902 0 
-608 -908 668 0 
-668 608 0 
-668 908 0 
-619 -914 669 0 
-669 619 0 
-669 914 0 
666 667 668 669 665 -670 0 
-670 675 0 
-588 -897 671 0 
-671 588 0 
-671 897 0 
-599 -903 672 0 
-672 599 0 
-672 903 0 
-610 -909 673 0 
-673 610 0 
-673 909 0 
-621 -915 674 0 
-674 621 0 
-674 915 0 
671 672 673 674 670 -675 0 
-676 -682 0 
-676 -688 0 
-676 -724 0 
-676 -730 0 
-676 -736 0 
-677 -683 0 
-677 -689 0 
-677 -725 0 
-677 -731 0 
-677 -737 0 
-678 -684 0 
-678 -690 0 
-678 -726 0 
-678 -732 0 
-678 -738 0 
-679 -685 0 
-679 -691 0 
-679 -727 0 
-679 -733 0 
-679 -739 0 
-680 -686 0 
-680 -692 0 
-680 -728 0 
-680 -734 0 
-680 -740 0 
-681 -687 0 
-681 -693 0 
-681 -729 0 
-681 -735 0 
-681 -741 0 
-682 -688 0 
-682 -694 0 
-682 -724 0 
-682 -736 0 
-682 -742 0 
-683 -689 0 
-683 -695 0 
-683 -725 0 
-683 -737 0 
-683 -743 0 
-684 -690 0 
-684 -696 0 
-684 -726 0 
-684 -738 0 
-684 -744 0 
-685 -691 0 
-685 -697 0 
-685 -727 0 
-685 -739 0 
-685 -745 0 
-686 -692 0 
-686 -698 0 
-686 -728 0 
-686 -740 0 
-686 -746 0 
-687 -693 0 
-687 -699 0 
-687 -729 0 
-687 -741 0 
-687 -747 0 
-688 -694 0 
-688 -724 0 
-688 -730 0 
-688 -742 0 
-689 -695 0 
-689 -725 0 
-689 -731 0 
-689 -743 0 
-690 -696 0 
-690 -726 0 
-690 -732 0 
-690 -744 0 
-691 -697 0 
-691 -727 0 
-691 -733 0 
-691 -745 0 
-692 -698 0 
-692 -728 0 
-692 -734 0 
-692 -746 0 
-693 -699 0 
-693 -729 0 
-693 -735 0 
-693 -747 0 
-694 -730 0 
-694 -736 0 
-694 -742 0 
-695 -731 0 
-695 -737 0 
-695 -743 0 
-696 -732 0 
-696 -738 0 
-696 -744 0 
-697 -733 0 
-697 -739 0 
-697 -745 0 
-698 -734 0 
-698 -740 0 
-698 -746 0 
-699 -735 0 
-699 -741 0 
-699 -747 0 
-700 -706 0 
-700 -712 0 
-700 -748 0 
-700 -754 0 
-700 -760 0 
-701 -707 0 
-701 -713 0 
-701 -749 0 
-701 -755 0 
-701 -761 0 
-702 -708 0 
-702 -714 0 
-702 -750 0 
-702 -756 0 
-702 -762 0 
-703 -709 0 
-703 -715 0 
-703 -751 0 
-703 -757 0 
-703 -763 0 
-704 -710 0 
-704 -716 0 
-704 -752 0 
-704 -758 0 
-704 -764 0 
-705 -711 0 
-705 -717 0 
-705 -753 0 
-705 -759 0 
-705 -765 0 
-706 -712 0 
-706 -718 0 
-706 -748 0 
-706 -760 0 
-706 -766 0 
-707 -713 0 
-707 -719 0 
-707 -749 0 
-707 -761 0 
-707 -767 0 
-708 -714 0 
-708 -720 0 
-708 -750 0 
-708 -762 0 
-708 -768 0 
-709 -715 0 
-709 -721 0 
-709 -751 0 
-709 -763 0 
-709 -769 0 
-710 -716 0 
-710 -722 0 
-710 -752 0 
-710 -764 0 
-710 -770 0 
-711 -717 0 
-711 -723 0 
-711 -753 0 
-711 -765 0 
-711 -771 0 
-712 -718 0 
-712 -748 0 
-712 -754 0 
-712 -766 0 
-713 -719 0 
-713 -749 0 
-713 -755 0 
-713 -767 0 
-714 -720 0 
-714 -750 0 
-714 -756 0 
-714 -768 0 
-715 -721 0 
-715 -751 0 
-715 -757 0 
-715 -769 0 
-716 -722 0 
-716 -752 0 
-716 -758 0 
-716 -770 0 
-717 -723 0 
-717 -753 0 
-717 -759 0 
-717 -771 0 
-718 -754 0 
-718 -760 0 
-718 -766 0 
-719 -755 0 
-719 -761 0 
-719 -767 0 
-720 -756 0 
-720 -762 0 
-720 -768 0 
-721 -757 0 
-721 -763 0 
-721 -769 0 
-722 -758 0 
-722 -764 0 
-722 -770 0 
-723 -759 0 
-723 -765 0 
-723 -771 0 
-724 -730 0 
-724 -736 0 
-725 -731 0 
-725 -737 0 
-726 -732 0 
-726 -738 0 
-727 -733 0 
-727 -739 0 
-728 -734 0 
-728 -740 0 
-729 -735 0 
-729 -741 0 
-730 -736 0 
-730 -742 0 
-731 -737 0 
-731 -743 0 
-732 -738 0 
-732 -744 0 
-733 -739 0 
-733 -745 0 
-734 -740 0 
-734 -746 0 
-735 -741 0 
-735 -747 0 
-736 -742 0 
-737 -743 0 
-738 -744 0 
-739 -745 0 
-740 -746 0 
-741 -747 0 
-748 -754 0 
-748 -760 0 
-749 -755 0 
-749 -761 0 
-750 -756 0 
-750 -762 0 
-751 -757 0 
-751 -763 0 
-752 -758 0 
-752 -764 0 
-753 -759 0 
-753 -765 0 
-754 -760 0 
-754 -766 0 
-755 -761 0 
-755 -767 0 
-756 -762 0 
-756 -768 0 
-757 -763 0 
-757 -769 0 
-758 -764 0 
-758 -770 0 
-759 -765 0 
-759 -771 0 
-760 -766 0 
-761 -767 0 
-762 -768 0 
-763 -769 0 
-764 -770 0 
-765 -771 0 
-772 -820 0 
-772 -826 0 
-772 -832 0 
-772 -838 0 
-772 -844 0 
-773 -821 0 
-773 -827 0 
-773 -833 0 
-773 -839 0 
-773 -845 0 
-774 -822 0 
-774 -828 0 
-774 -834 0 
-774 -840 0 
-774 -846 0 
-775 -823 0 
-775 -829 0 
-775 -835 0 
-775 -841 0 
-775 -847 0 
-776 -824 0 
-776 -830 0 
-776 -836 0 
-776 -842 0 
-776 -848 0 
-777 -825 0 
-777 -831 0 
-777 -837 0 
-777 -843 0 
-777 -849 0 
-778 -820 0 
-778 -826 0 
-778 -832 0 
-778 -838 0 
-778 -850 0 
-779 -821 0 
-779 -827 0 
-779 -833 0 
-779 -839 0 
-779 -851 0 
-780 -822 0 
-780 -828 0 
-780 -834 0 
-780 -840 0 
-780 -852 0 
-781 -823 0 
-781 -829 0 
-781 -835 0 
-781 -841 0 
-781 -853 0 
-782 -824 0 
-782 -830 0 
-782 -836 0 
-782 -842 0 
-782 -854 0 
-783 -825 0 
-783 -831 0 
-783 -837 0 
-783 -843 0 
-783 -855 0 
-784 -820 0 
-784 -826 0 
-784 -832 0 
-784 -838 0 
-784 -856 0 
-785 -821 0 
-785 -827 0 
-785 -833 0 
-785 -839 0 
-785 -857 0 
-786 -822 0 
-786 -828 0 
-786 -834 0 
-786 -840 0 
-786 -858 0 
-787 -823 0 
-787 -829 0 
-787 -835 0 
-787 -841 0 
-787 -859 0 
-788 -824 0 
-788 -830 0 
-788 -836 0 
-788 -842 0 
-788 -860 0 
-789 -825 0 
-789 -831 0 
-789 -837 0 
-789 -843 0 
-789 -861 0 
-790 -820 0 
-790 -826 0 
-790 -832 0 
-790 -838 0 
-790 -862 0 
-791 -821 0 
-791 -827 0 
-791 -833 0 
-791 -839 0 
-791 -863 0 
-792 -822 0 
-792 -828 0 
-792 -834 0 
-792 -840 0 
-792 -864 0 
-793 -823 0 
-793 -829 0 
-793 -835 0 
-793 -841 0 
-793 -865 0 
-794 -824 0 
-794 -830 0 
-794 -836 0 
-794 -842 0 
-794 -866 0 
-795 -825 0 
-795 -831 0 
-795 -837 0 
-795 -843 0 
-795 -867 0 
-796 -820 0 
-796 -844 0 
-796 -850 0 
-796 -856 0 
-796 -862 0 
-797 -821 0 
-797 -845 0 
-797 -851 0 
-797 -857 0 
-797 -863 0 
-798 -822 0 
-798 -846 0 
-798 -852 0 
-798 -858 0 
-798 -864 0 
-799 -823 0 
-799 -847 0 
-799 -853 0 
-799 -859 0 
-799 -865 0 
-800 -824 0 
-800 -848 0 
-800 -854 0 
-800 -860 0 
-800 -866 0 
-801 -825 0 
-801 -849 0 
-801 -855 0 
-801 -861 0 
-801 -867 0 
-802 -826 0 
-802 -844 0 
-802 -850 0 
-802 -856 0 
-802 -862 0 
-803 -827 0 
-803 -845 0 
-803 -851 0 
-803 -857 0 
-803 -863 0 
-804 -828 0 
-804 -846 0 
-804 -852 0 
-804 -858 0 
-804 -864 0 
-805 -829 0 
-805 -847 0 
-805 -853 0 
-805 -859 0 
-805 -865 0 
-806 -830 0 
-806 -848 0 
-806 -854 0 
-806 -860 0 
-806 -866 0 
-807 -831 0 
-807 -849 0 
-807 -855 0 
-807 -861 0 
-807 -867 0 
-808 -832 0 
-808 -844 0 
-808 -850 0 
-808 -856 0 
-808 -862 0 
-809 -833 0 
-809 -845 0 
-809 -851 0 
-809 -857 0 
-809 -863 0 
-810 -834 0 
-810 -846 0 
-810 -852 0 
-810 -858 0 
-810 -864 0 
-811 -835 0 
-811 -847 0 
-811 -853 0 
-811 -859 0 
-811 -865 0 
-812 -836 0 
-812 -848 0 
-812 -854 0 
-812 -860 0 
-812 -866 0 
-813 -837 0 
-813 -849 0 
-813 -855 0 
-813 -861 0 
-813 -867 0 
-814 -838 0 
-814 -844 0 
-814 -850 0 
-814 -856 0 
-814 -862 0 
-815 -839 0 
-815 -845 0 
-815 -851 0 
-815 -857 0 
-815 -863 0 
-816 -840 0 
-816 -846 0 
-816 -852 0 
-816 -858 0 
-816 -864 0 
-817 -841 0 
-817 -847 0 
-817 -853 0 
-817 -859 0 
-817 -865 0 
-818 -842 0 
-818 -848 0 
-818 -854 0 
-818 -860 0 
-818 -866 0 
-819 -843 0 
-819 -849 0 
-819 -855 0 
-819 -861 0 
-819 -867 0 
